results_rootrelaxation/bin012_080_027.srr.sol
solution status: optimal solution found
objective value:                     17.6141732283465
_var708_                           0.0787401574803144 	(obj:3)
_var724_                            0.519685039370079 	(obj:0)
_var726_                           0.0708661417322834 	(obj:2)
_var737_                            0.267716535433071 	(obj:1)
_var738_                            0.456692913385827 	(obj:0)
_var754_                           0.0472440944881897 	(obj:4)
_var757_                           0.0314960629921262 	(obj:2)
_var766_                           0.0866141732283469 	(obj:2)
_var772_                            0.519685039370079 	(obj:1)
_var785_                            0.173228346456693 	(obj:3)
_var788_                            0.362204724409449 	(obj:0)
_var791_                             0.37007874015748 	(obj:2)
_var798_                           0.0472440944881897 	(obj:4)
_var804_                            0.362204724409449 	(obj:0)
_var805_                            0.362204724409449 	(obj:0)
_var806_                            0.220472440944882 	(obj:2)
_var810_                             0.15748031496063 	(obj:1)
_var817_                           0.0393700787401579 	(obj:1)
_var823_                             0.15748031496063 	(obj:2)
_var825_                            0.433070866141733 	(obj:1)
_var828_                            0.385826771653543 	(obj:1)
_var832_                            0.275590551181102 	(obj:1)
_var835_                             0.37007874015748 	(obj:1)
_var838_                           0.0866141732283461 	(obj:0)
_var841_                           0.0708661417322846 	(obj:3)
_var846_                            0.149606299212599 	(obj:0)
_var850_                           0.0314960629921263 	(obj:1)
_var851_                            0.322834645669291 	(obj:3)
_var855_                            0.480314960629921 	(obj:2)
_var863_                           0.0551181102362198 	(obj:3)
_var866_                            0.275590551181102 	(obj:1)
_var875_                             0.26771653543307 	(obj:4)
_var878_                            0.118110236220473 	(obj:2)
_var880_                           0.0866141732283462 	(obj:2)
_var883_                            0.165354330708662 	(obj:3)
_var884_                            0.228346456692914 	(obj:3)
_var891_                           0.0314960629921264 	(obj:1)
_var895_                            0.181102362204724 	(obj:3)
_var897_                            0.133858267716535 	(obj:2)
_var898_                            0.173228346456693 	(obj:1)
_var899_                            0.110236220472441 	(obj:2)
_var900_                           0.0236220472440941 	(obj:2)
_var901_                           0.0236220472440946 	(obj:1)
_var903_                            0.322834645669291 	(obj:1)
_var904_                            0.157480314960629 	(obj:3)
_var906_                            0.307086614173228 	(obj:4)
_var908_                            0.015748031496064 	(obj:2)
_var913_                            0.322834645669291 	(obj:3)
_var914_                            0.118110236220472 	(obj:4)
_var915_                            0.118110236220472 	(obj:1)
_var916_                           0.0944881889763775 	(obj:3)
_var919_                             0.15748031496063 	(obj:1)
_var924_                            0.118110236220473 	(obj:1)
_var925_                            0.062992125984252 	(obj:3)
_var926_                           0.0314960629921258 	(obj:4)
_var928_                           0.0708661417322848 	(obj:3)
_var929_                            0.157480314960629 	(obj:3)
_var934_                             0.10236220472441 	(obj:3)
_var935_                           0.0314960629921262 	(obj:3)
